decision_x1=[0,4];
decision_x2=[0,4];
decision_x3=[0,4];
decision_x4=[0,4];
random_y1=[0,4];
random_y2=[0,4];
constraint_x2_x1=[
0,1,8.9|
0,2,9.2|
0,3,8.4|
0,4,6.5|
1,0,0.54|
1,2,4.9|
1,3,6.4|
1,4,10|
2,0,5.7|
2,1,1.1|
2,3,5.1|
2,4,1.4|
3,0,7.1|
3,1,6.6|
3,2,4.2|
3,4,6.2|
4,0,8.6|
4,1,2.8|
4,2,2.2|
4,3,8.5|
];
constraint_x4_x1=[
0,1,6|
0,2,6.4|
0,3,0.28|
0,4,0.91|
1,0,7|
1,2,7.6|
1,3,7.4|
1,4,3.6|
2,0,0.64|
2,1,1.5|
2,3,0.71|
2,4,2.4|
3,0,6.9|
3,1,3.5|
3,2,9|
3,4,3.3|
4,0,2.1|
4,1,7.8|
4,2,0.91|
4,3,8.2|
];
constraint_x4_x3=[
0,1,6.1|
0,2,9.6|
0,3,7.7|
0,4,3.8|
1,0,6.3|
1,2,0.49|
1,3,7.9|
1,4,6.1|
2,0,8.3|
2,1,5.4|
2,3,2.5|
2,4,6.6|
3,0,0.61|
3,1,5.6|
3,2,7.1|
3,4,3.6|
4,0,9.3|
4,1,0.25|
4,2,3.6|
4,3,5.9|
];
constraint_x1_y1=[
0,0,7.4|
0,1,5.5|
0,2,4|
0,3,0.63|
0,4,3.3|
1,0,5.2|
1,1,9.8|
1,2,9.6|
1,3,7.4|
1,4,0.28|
2,0,3|
2,1,2.5|
2,2,7.8|
2,3,5.3|
2,4,3.3|
3,0,5|
3,1,1.3|
3,2,5.7|
3,3,5|
3,4,9.1|
4,0,0.96|
4,1,1.6|
4,2,9.8|
4,3,6.9|
4,4,0.26|
];
constraint_x2_y2=[
0,0,2.7|
0,1,9.8|
0,2,6.4|
0,3,8.6|
0,4,1.7|
1,0,2.6|
1,1,5.8|
1,2,1.4|
1,3,2.9|
1,4,3.7|
2,0,9.9|
2,1,2.1|
2,2,7.5|
2,3,1.3|
2,4,5.1|
3,0,9.3|
3,1,1.2|
3,2,7.7|
3,3,0.073|
3,4,7.7|
4,0,3.5|
4,1,3.6|
4,2,4.1|
4,3,1.2|
4,4,7.6|
];
initial_distribution_y1=[0.31,0.088,0.22,0.16,0.22];
initial_distribution_y2=[0.097,0.089,0.31,0.31,0.2];
transition_y1=[
0.27,0.26,0.21,0.088,0.17|
0.076,0.066,0.35,0.32,0.19|
0.27,0.045,0.35,0.31,0.024|
0.43,0.17,0.05,0.031,0.32|
0.25,0.36,0.046,0.015,0.33|
];
transition_y2=[
0.27,0.2,0.14,0.11,0.29|
0.22,0.031,0.24,0.22,0.29|
0.35,0.0077,0.35,0.19,0.1|
0.098,0.33,0.26,0.2,0.11|
0.25,0.31,0.056,0.23,0.15|
];
